4051
4059
4039
4016
4001
4060
4065
4072
3978
4011
4029
4053
4099
4013
3894
4034
4022
4042
3994
3974
4036
4029
4053
3979
3986
4042
4024
4009
4030
4049
4067
3966
4021
4061
3988
3952
4052
3952
4039
4078
3980
4027
3960
4005
3986
3973
3901
4071
3990
3957
3948
4002
4055
4005
3997
3995
3980
3996
4017
3999
4037
4071
4021
3983
4008
3985
3994
4018
3913
4046
3994
4073
4051
4084
4019
4004
3993
4036
4059
4031
3959
4046
4098
4059
4067
4003
4040
3968
4066
4038
4014
4055
3983
4021
4066
4007
4057
4052
4058
4047
